 &control
    calculation         = 'scf'
    restart_mode        = 'from_scratch'
    prefix              = 'graphene'
    tstress             = .false.
    tprnfor             = .true.
    pseudo_dir          = './',
    outdir              = './'
    wf_collect          = .true.
 /
 &system
    ibrav=  4, celldm(1)=18.604, celldm(3) =2.165, nat=  32, ntyp= 1,
    ecutwfc =80.0,
    occupations='smearing', smearing='gaussian', degauss=0.02
    nbnd = 140
    assume_isolated='2D'
/
&ELECTRONS
    diagonalization='cg'
    mixing_mode = 'plain'
    mixing_beta = 0.4
    conv_thr =  1.0d-6
/
ATOMIC_SPECIES
C   12.0107    C.UPF
ATOMIC_POSITIONS (crystal)
C        0.08333333     0.41666667	0.000000000  
C	 0.08333333	0.91666667	0.000000000
C	 0.60700000	0.46000000      0.000000000
C	 0.58333333	0.91666667	0.000000000
C        0.16666667	0.33333333	0.000000000
C	 0.16666667	0.83333333	0.000000000
C	 0.66666667	0.33333333	0.000000000
C	 0.66666667	0.83333333	0.000000000
C        0.08333333	0.16666667	0.000000000
C	 0.08333333	0.66666667	0.000000000
C	 0.58333333	0.16666667	0.000000000
C	 0.58333333	0.66666667	0.000000000
C        0.16666667	0.08333333	0.000000000
C	 0.16666667	0.58333333	0.000000000
C	 0.66666667	0.08333333	0.000000000
C	 0.66666667	0.58333333	0.000000000
C        0.33333333	0.41666667	0.000000000
C	 0.33333333	0.91666667	0.000000000
C	 0.83333333	0.41666667	0.000000000
C	 0.83333333	0.91666667	0.000000000
C        0.41666667	0.33333333	0.000000000
C	 0.41666667	0.83333333	0.000000000
C	 0.91666667	0.33333333	0.000000000
C	 0.91666667	0.83333333	0.000000000
C        0.33333333	0.16666667	0.000000000
C	 0.33333333	0.66666667	0.000000000
C	 0.83333333	0.16666667	0.000000000
C	 0.83333333	0.66666667	0.000000000
C        0.41666667	0.08333333	0.000000000
C	 0.41666667	0.58333333	0.000000000
C	 0.91666667	0.08333333	0.000000000
C	 0.91666667	0.58333333	0.000000000
K_POINTS crystal
99
  0.00000000   0.00000000   0.00000000   1.00000000
  0.00000000   0.02857143   0.00000000   1.00000000
  0.00000000   0.05714286   0.00000000   1.00000000
  0.00000000   0.08571429   0.00000000   1.00000000
  0.00000000   0.11428571   0.00000000   1.00000000
  0.00000000   0.14285714   0.00000000   1.00000000
  0.00000000   0.17142857   0.00000000   1.00000000
  0.00000000   0.20000000   0.00000000   1.00000000
  0.00000000   0.22857143   0.00000000   1.00000000
  0.00000000   0.25714286   0.00000000   1.00000000
  0.00000000   0.28571429   0.00000000   1.00000000
  0.00000000   0.31428571   0.00000000   1.00000000
  0.00000000   0.34285714   0.00000000   1.00000000
  0.00000000   0.37142857   0.00000000   1.00000000
  0.00000000   0.40000000   0.00000000   1.00000000
  0.00000000   0.42857143   0.00000000   1.00000000
  0.00000000   0.45714286   0.00000000   1.00000000
  0.00000000   0.48571429   0.00000000   1.00000000
  0.00000000   0.51428571   0.00000000   1.00000000
  0.00000000   0.54285714   0.00000000   1.00000000
  0.00000000   0.57142857   0.00000000   1.00000000
  0.00000000   0.60000000   0.00000000   1.00000000
  0.00000000   0.62857143   0.00000000   1.00000000
  0.00000000   0.65714286   0.00000000   1.00000000
  0.00000000   0.68571429   0.00000000   1.00000000
  0.00000000   0.71428571   0.00000000   1.00000000
  0.00000000   0.74285714   0.00000000   1.00000000
  0.00000000   0.77142857   0.00000000   1.00000000
  0.00000000   0.80000000   0.00000000   1.00000000
  0.00000000   0.82857143   0.00000000   1.00000000
  0.00000000   0.85714286   0.00000000   1.00000000
  0.00000000   0.88571429   0.00000000   1.00000000
  0.00000000   0.91428571   0.00000000   1.00000000
  0.00000000   0.94285714   0.00000000   1.00000000
  0.00000000   0.97142857   0.00000000   1.00000000
  0.02221200   0.48887867   0.00000000   1.00000000
  0.02856114   0.02856114   0.00000000   1.00000000
  0.03809486   0.03809486   0.00000000   1.00000000
  0.04444400   0.97777733   0.00000000   1.00000000
  0.06665600   0.06665600   0.00000000   1.00000000
  0.06665600   0.46665600   0.00000000   1.00000000
  0.07618971   0.07618971   0.00000000   1.00000000
  0.08888800   0.95555467   0.00000000   1.00000000
  0.10475086   0.10475086   0.00000000   1.00000000
  0.11110000   0.44443333   0.00000000   1.00000000
  0.11428457   0.11428457   0.00000000   1.00000000
  0.13333200   0.93333200   0.00000000   1.00000000
  0.14284571   0.14284571   0.00000000   1.00000000
  0.15237943   0.15237943   0.00000000   1.00000000
  0.15554400   0.42221067   0.00000000   1.00000000
  0.17777600   0.91110933   0.00000000   1.00000000
  0.18094057   0.18094057   0.00000000   1.00000000
  0.19047429   0.19047429   0.00000000   1.00000000
  0.19998800   0.39998800   0.00000000   1.00000000
  0.21903543   0.21903543   0.00000000   1.00000000
  0.22222000   0.88888667   0.00000000   1.00000000
  0.22856914   0.22856914   0.00000000   1.00000000
  0.24443200   0.37776533   0.00000000   1.00000000
  0.25713029   0.25713029   0.00000000   1.00000000
  0.26666400   0.26666400   0.00000000   1.00000000
  0.26666400   0.86666400   0.00000000   1.00000000
  0.28887600   0.35554267   0.00000000   1.00000000
  0.29522514   0.29522514   0.00000000   1.00000000
  0.30475886   0.30475886   0.00000000   1.00000000
  0.31110800   0.84444133   0.00000000   1.00000000
  0.33332000   0.33332000   0.00000000   1.00000000
  0.34285371   0.34285371   0.00000000   1.00000000
  0.35555200   0.82221867   0.00000000   1.00000000
  0.38094857   0.38094857   0.00000000   1.00000000
  0.39999600   0.79999600   0.00000000   1.00000000
  0.41904343   0.41904343   0.00000000   1.00000000
  0.44444000   0.77777333   0.00000000   1.00000000
  0.45713829   0.45713829   0.00000000   1.00000000
  0.48888400   0.75555067   0.00000000   1.00000000
  0.49523314   0.49523314   0.00000000   1.00000000
  0.53332800   0.53332800   0.00000000   1.00000000
  0.53332800   0.73332800   0.00000000   1.00000000
  0.57142286   0.57142286   0.00000000   1.00000000
  0.57777200   0.71110533   0.00000000   1.00000000
  0.60951771   0.60951771   0.00000000   1.00000000
  0.62221600   0.68888267   0.00000000   1.00000000
  0.64761257   0.64761257   0.00000000   1.00000000
  0.66666000   0.66666000   0.00000000   1.00000000
  0.68570743   0.68570743   0.00000000   1.00000000
  0.71110400   0.64443733   0.00000000   1.00000000
  0.72380229   0.72380229   0.00000000   1.00000000
  0.75554800   0.62221467   0.00000000   1.00000000
  0.76189714   0.76189714   0.00000000   1.00000000
  0.79999200   0.59999200   0.00000000   1.00000000
  0.79999200   0.79999200   0.00000000   1.00000000
  0.83808686   0.83808686   0.00000000   1.00000000
  0.84443600   0.57776933   0.00000000   1.00000000
  0.87618171   0.87618171   0.00000000   1.00000000
  0.88888000   0.55554667   0.00000000   1.00000000
  0.91427657   0.91427657   0.00000000   1.00000000
  0.93332400   0.53332400   0.00000000   1.00000000
  0.95237143   0.95237143   0.00000000   1.00000000
  0.97776800   0.51110133   0.00000000   1.00000000
  0.99046629   0.99046629   0.00000000   1.00000000
