 &control
    calculation         = 'scf'
    restart_mode        = 'from_scratch'
    prefix              = 'graphene'
    tstress             = .false.
    tprnfor             = .true.
    pseudo_dir          = './',
    outdir              = './'
    wf_collect          = .true.
 /
 &system
    ibrav=  4, celldm(1)=18.604, celldm(3) =2.165, nat=  31, ntyp= 1,
    ecutwfc =80.0,
    occupations='smearing', smearing='gaussian', degauss=0.02
/
&ELECTRONS
    diagonalization='david'
    mixing_mode = 'plain'
    mixing_beta = 0.4
    conv_thr =  1.0d-10
/
ATOMIC_SPECIES
C   12.0107    C.UPF
ATOMIC_POSITIONS (crystal)
C        0.08333333	0.41666667	0.000000000  
C	 0.08333333	0.91666667	0.000000000
C	 0.58333333	0.41666667	0.000000000
C	 0.58333333	0.91666667	0.000000000
C        0.16666667	0.33333333	0.000000000
C	 0.16666667	0.83333333	0.000000000
C	 0.66666667	0.33333333	0.000000000
C	 0.66666667	0.83333333	0.000000000
C        0.08333333	0.16666667	0.000000000
C	 0.08333333	0.66666667	0.000000000
C	 0.58333333	0.16666667	0.000000000
C	 0.58333333	0.66666667	0.000000000
C        0.16666667	0.08333333	0.000000000
C	 0.16666667	0.58333333	0.000000000
C	 0.66666667	0.08333333	0.000000000
C	 0.66666667	0.58333333	0.000000000
C        0.33333333	0.41666667	0.000000000
C	 0.33333333	0.91666667	0.000000000
C	 0.83333333	0.41666667	0.000000000
C	 0.83333333	0.91666667	0.000000000
C        0.41666667	0.33333333	0.000000000
C	 0.41666667	0.83333333	0.000000000
C	 0.91666667	0.33333333	0.000000000
C	 0.91666667	0.83333333	0.000000000
C        0.33333333	0.16666667	0.000000000
C	 0.33333333	0.66666667	0.000000000
C	 0.83333333	0.16666667	0.000000000
C	 0.83333333	0.66666667	0.000000000
C        0.41666667	0.08333333	0.000000000
C	 0.41666667	0.58333333	0.000000000
C	 0.91666667	0.08333333	0.000000000
K_POINTS crystal
199
  0.00000000   0.00000000   0.00000000   1.00000000
  0.00000000   0.01333333   0.00000000   1.00000000
  0.00000000   0.02666667   0.00000000   1.00000000
  0.00000000   0.04000000   0.00000000   1.00000000
  0.00000000   0.05333333   0.00000000   1.00000000
  0.00000000   0.06666667   0.00000000   1.00000000
  0.00000000   0.08000000   0.00000000   1.00000000
  0.00000000   0.09333333   0.00000000   1.00000000
  0.00000000   0.10666667   0.00000000   1.00000000
  0.00000000   0.12000000   0.00000000   1.00000000
  0.00000000   0.13333333   0.00000000   1.00000000
  0.00000000   0.14666667   0.00000000   1.00000000
  0.00000000   0.16000000   0.00000000   1.00000000
  0.00000000   0.17333333   0.00000000   1.00000000
  0.00000000   0.18666667   0.00000000   1.00000000
  0.00000000   0.20000000   0.00000000   1.00000000
  0.00000000   0.21333333   0.00000000   1.00000000
  0.00000000   0.22666667   0.00000000   1.00000000
  0.00000000   0.24000000   0.00000000   1.00000000
  0.00000000   0.25333333   0.00000000   1.00000000
  0.00000000   0.26666667   0.00000000   1.00000000
  0.00000000   0.28000000   0.00000000   1.00000000
  0.00000000   0.29333333   0.00000000   1.00000000
  0.00000000   0.30666667   0.00000000   1.00000000
  0.00000000   0.32000000   0.00000000   1.00000000
  0.00000000   0.33333333   0.00000000   1.00000000
  0.00000000   0.34666667   0.00000000   1.00000000
  0.00000000   0.36000000   0.00000000   1.00000000
  0.00000000   0.37333333   0.00000000   1.00000000
  0.00000000   0.38666667   0.00000000   1.00000000
  0.00000000   0.40000000   0.00000000   1.00000000
  0.00000000   0.41333333   0.00000000   1.00000000
  0.00000000   0.42666667   0.00000000   1.00000000
  0.00000000   0.44000000   0.00000000   1.00000000
  0.00000000   0.45333333   0.00000000   1.00000000
  0.00000000   0.46666667   0.00000000   1.00000000
  0.00000000   0.48000000   0.00000000   1.00000000
  0.00000000   0.49333333   0.00000000   1.00000000
  0.00000000   0.50666667   0.00000000   1.00000000
  0.00000000   0.52000000   0.00000000   1.00000000
  0.00000000   0.53333333   0.00000000   1.00000000
  0.00000000   0.54666667   0.00000000   1.00000000
  0.00000000   0.56000000   0.00000000   1.00000000
  0.00000000   0.57333333   0.00000000   1.00000000
  0.00000000   0.58666667   0.00000000   1.00000000
  0.00000000   0.60000000   0.00000000   1.00000000
  0.00000000   0.61333333   0.00000000   1.00000000
  0.00000000   0.62666667   0.00000000   1.00000000
  0.00000000   0.64000000   0.00000000   1.00000000
  0.00000000   0.65333333   0.00000000   1.00000000
  0.00000000   0.66666667   0.00000000   1.00000000
  0.00000000   0.68000000   0.00000000   1.00000000
  0.00000000   0.69333333   0.00000000   1.00000000
  0.00000000   0.70666667   0.00000000   1.00000000
  0.00000000   0.72000000   0.00000000   1.00000000
  0.00000000   0.73333333   0.00000000   1.00000000
  0.00000000   0.74666667   0.00000000   1.00000000
  0.00000000   0.76000000   0.00000000   1.00000000
  0.00000000   0.77333333   0.00000000   1.00000000
  0.00000000   0.78666667   0.00000000   1.00000000
  0.00000000   0.80000000   0.00000000   1.00000000
  0.00000000   0.81333333   0.00000000   1.00000000
  0.00000000   0.82666667   0.00000000   1.00000000
  0.00000000   0.84000000   0.00000000   1.00000000
  0.00000000   0.85333333   0.00000000   1.00000000
  0.00000000   0.86666667   0.00000000   1.00000000
  0.00000000   0.88000000   0.00000000   1.00000000
  0.00000000   0.89333333   0.00000000   1.00000000
  0.00000000   0.90666667   0.00000000   1.00000000
  0.00000000   0.92000000   0.00000000   1.00000000
  0.00000000   0.93333333   0.00000000   1.00000000
  0.00000000   0.94666667   0.00000000   1.00000000
  0.00000000   0.96000000   0.00000000   1.00000000
  0.00000000   0.97333333   0.00000000   1.00000000
  0.00000000   0.98666667   0.00000000   1.00000000
  0.00511815   0.00511815   0.00000000   1.00000000
  0.02051262   0.02051262   0.00000000   1.00000000
  0.02221200   0.48887867   0.00000000   1.00000000
  0.02222200   0.98888867   0.00000000   1.00000000
  0.02563077   0.02563077   0.00000000   1.00000000
  0.04102523   0.04102523   0.00000000   1.00000000
  0.04443400   0.47776733   0.00000000   1.00000000
  0.04444400   0.97777733   0.00000000   1.00000000
  0.04614338   0.04614338   0.00000000   1.00000000
  0.06153785   0.06153785   0.00000000   1.00000000
  0.06665600   0.06665600   0.00000000   1.00000000
  0.06665600   0.46665600   0.00000000   1.00000000
  0.06666600   0.96666600   0.00000000   1.00000000
  0.08205046   0.08205046   0.00000000   1.00000000
  0.08716862   0.08716862   0.00000000   1.00000000
  0.08887800   0.45554467   0.00000000   1.00000000
  0.08888800   0.95555467   0.00000000   1.00000000
  0.10256308   0.10256308   0.00000000   1.00000000
  0.10768123   0.10768123   0.00000000   1.00000000
  0.11110000   0.44443333   0.00000000   1.00000000
  0.11111000   0.94444333   0.00000000   1.00000000
  0.12307569   0.12307569   0.00000000   1.00000000
  0.12819385   0.12819385   0.00000000   1.00000000
  0.13332200   0.43332200   0.00000000   1.00000000
  0.13333200   0.93333200   0.00000000   1.00000000
  0.14358831   0.14358831   0.00000000   1.00000000
  0.14870646   0.14870646   0.00000000   1.00000000
  0.15554400   0.42221067   0.00000000   1.00000000
  0.15555400   0.92222067   0.00000000   1.00000000
  0.16410092   0.16410092   0.00000000   1.00000000
  0.16921908   0.16921908   0.00000000   1.00000000
  0.17776600   0.41109933   0.00000000   1.00000000
  0.17777600   0.91110933   0.00000000   1.00000000
  0.18461354   0.18461354   0.00000000   1.00000000
  0.18973169   0.18973169   0.00000000   1.00000000
  0.19998800   0.39998800   0.00000000   1.00000000
  0.19999800   0.89999800   0.00000000   1.00000000
  0.20512615   0.20512615   0.00000000   1.00000000
  0.21024431   0.21024431   0.00000000   1.00000000
  0.22221000   0.38887667   0.00000000   1.00000000
  0.22222000   0.88888667   0.00000000   1.00000000
  0.22563877   0.22563877   0.00000000   1.00000000
  0.23075692   0.23075692   0.00000000   1.00000000
  0.24443200   0.37776533   0.00000000   1.00000000
  0.24444200   0.87777533   0.00000000   1.00000000
  0.24615138   0.24615138   0.00000000   1.00000000
  0.25126954   0.25126954   0.00000000   1.00000000
  0.26665400   0.36665400   0.00000000   1.00000000
  0.26666400   0.26666400   0.00000000   1.00000000
  0.26666400   0.86666400   0.00000000   1.00000000
  0.27178215   0.27178215   0.00000000   1.00000000
  0.28717662   0.28717662   0.00000000   1.00000000
  0.28887600   0.35554267   0.00000000   1.00000000
  0.28888600   0.85555267   0.00000000   1.00000000
  0.29229477   0.29229477   0.00000000   1.00000000
  0.30768923   0.30768923   0.00000000   1.00000000
  0.31109800   0.34443133   0.00000000   1.00000000
  0.31110800   0.84444133   0.00000000   1.00000000
  0.31280738   0.31280738   0.00000000   1.00000000
  0.32820185   0.32820185   0.00000000   1.00000000
  0.33332000   0.33332000   0.00000000   1.00000000
  0.33333000   0.83333000   0.00000000   1.00000000
  0.34871446   0.34871446   0.00000000   1.00000000
  0.35555200   0.82221867   0.00000000   1.00000000
  0.36922708   0.36922708   0.00000000   1.00000000
  0.37777400   0.81110733   0.00000000   1.00000000
  0.38973969   0.38973969   0.00000000   1.00000000
  0.39999600   0.79999600   0.00000000   1.00000000
  0.41025231   0.41025231   0.00000000   1.00000000
  0.42221800   0.78888467   0.00000000   1.00000000
  0.43076492   0.43076492   0.00000000   1.00000000
  0.44444000   0.77777333   0.00000000   1.00000000
  0.45127754   0.45127754   0.00000000   1.00000000
  0.46666200   0.76666200   0.00000000   1.00000000
  0.47179015   0.47179015   0.00000000   1.00000000
  0.48888400   0.75555067   0.00000000   1.00000000
  0.49230277   0.49230277   0.00000000   1.00000000
  0.51110600   0.74443933   0.00000000   1.00000000
  0.51281538   0.51281538   0.00000000   1.00000000
  0.53332800   0.53332800   0.00000000   1.00000000
  0.53332800   0.73332800   0.00000000   1.00000000
  0.55384062   0.55384062   0.00000000   1.00000000
  0.55555000   0.72221667   0.00000000   1.00000000
  0.57435323   0.57435323   0.00000000   1.00000000
  0.57777200   0.71110533   0.00000000   1.00000000
  0.59486585   0.59486585   0.00000000   1.00000000
  0.59999400   0.69999400   0.00000000   1.00000000
  0.61537846   0.61537846   0.00000000   1.00000000
  0.62221600   0.68888267   0.00000000   1.00000000
  0.63589108   0.63589108   0.00000000   1.00000000
  0.64443800   0.67777133   0.00000000   1.00000000
  0.65640369   0.65640369   0.00000000   1.00000000
  0.66666000   0.66666000   0.00000000   1.00000000
  0.67691631   0.67691631   0.00000000   1.00000000
  0.68888200   0.65554867   0.00000000   1.00000000
  0.69742892   0.69742892   0.00000000   1.00000000
  0.71110400   0.64443733   0.00000000   1.00000000
  0.71794154   0.71794154   0.00000000   1.00000000
  0.73332600   0.63332600   0.00000000   1.00000000
  0.73845415   0.73845415   0.00000000   1.00000000
  0.75554800   0.62221467   0.00000000   1.00000000
  0.75896677   0.75896677   0.00000000   1.00000000
  0.77777000   0.61110333   0.00000000   1.00000000
  0.77947938   0.77947938   0.00000000   1.00000000
  0.79999200   0.59999200   0.00000000   1.00000000
  0.79999200   0.79999200   0.00000000   1.00000000
  0.82050462   0.82050462   0.00000000   1.00000000
  0.82221400   0.58888067   0.00000000   1.00000000
  0.84101723   0.84101723   0.00000000   1.00000000
  0.84443600   0.57776933   0.00000000   1.00000000
  0.86152985   0.86152985   0.00000000   1.00000000
  0.86665800   0.56665800   0.00000000   1.00000000
  0.88204246   0.88204246   0.00000000   1.00000000
  0.88888000   0.55554667   0.00000000   1.00000000
  0.90255508   0.90255508   0.00000000   1.00000000
  0.91110200   0.54443533   0.00000000   1.00000000
  0.92306769   0.92306769   0.00000000   1.00000000
  0.93332400   0.53332400   0.00000000   1.00000000
  0.94358031   0.94358031   0.00000000   1.00000000
  0.95554600   0.52221267   0.00000000   1.00000000
  0.96409292   0.96409292   0.00000000   1.00000000
  0.97776800   0.51110133   0.00000000   1.00000000
  0.98460554   0.98460554   0.00000000   1.00000000
  0.99999000   0.49999000   0.00000000   1.00000000

